Traveling Salesman Problem/TSP_generados/Aleatorio1621103258_6.tsp
NAME: Aleatorio1621103258_6.tsp
COMMENT: Randomly generated scenario
TYPE: TSP
DIMENSION: 6
EDGE_WEIGHT_TYPE: ATT
NODE_COORD_SECTION
1 2.19 10.07
2 19.96 14.69
3 43.81 34.3
4 42.96 16.74
5 22.73 17.42
6 22.02 37.43
