Traveling Salesman Problem/TSP_generados/Aleatorio1621103258_6.opt.tour
NAME: Aleatorio1621103258_6.opt.tour
COMMENT: Optimal solution for Aleatorio1621103258_6 (115.87609399659486)
TYPE: TOUR
DIMENSION: 6
TOUR_SECTION
1 2 5 4 3 6
-1
EOF
